n = 37;
lu = [|355, 1250
      |-953, 388
      |-1098, 131
      |166, 528
      |-1191, 1121
      |-673, 1354
      |42, 1050
      |-276, -26
      |-20, 1179
      |-109, 568
      |272, 1018
      |-455, 1141
      |-1024, 793
      |-793, 631
      |419, 788
      |-1322, -360
      |164, 189
      |828, 1148
      |-1269, 697
      |-771, 578
      |-950, -345
      |-901, -845
      |-1014, 503
      |-889, 246
      |-621, -168
      |88, 488
      |346, 631
      |-192, 1239
      |-637, -289
      |-288, 406
      |-698, 158
      |-1048, -390
      |773, 956
      |-353, -123
      |-1252, -768
      |-389, 382
      |-1096, 122|];
